results_rootrelaxation/bin018_060_008.srr.sol
solution status: optimal solution found
objective value:                                    0
_var394_                           0.0106813271791356 	(obj:0)
_var921_                           0.0252625411207282 	(obj:0)
_var2695_                           0.036708220708824 	(obj:0)
_var2800_                           0.169837026698983 	(obj:0)
_var2824_                         0.00675283639792033 	(obj:0)
_var2830_                           0.121796264564175 	(obj:0)
_var2842_                          0.0569560638566764 	(obj:0)
_var2860_                          0.0657553489376333 	(obj:0)
_var2875_                           0.260271481086628 	(obj:0)
_var2878_                            0.12190665448319 	(obj:0)
_var2882_                         0.00354217480173607 	(obj:0)
_var2884_                          0.0174088933025578 	(obj:0)
_var2886_                          0.0377801886323687 	(obj:0)
_var2895_                           0.292132075913815 	(obj:0)
_var2908_                           0.148333028673804 	(obj:0)
_var2910_                            0.12409090672565 	(obj:0)
_var2911_                          0.0823758822701239 	(obj:0)
_var2916_                          0.0297600720095089 	(obj:0)
_var2920_                           0.199604255380683 	(obj:0)
_var2926_                          0.0549164285291245 	(obj:0)
_var2932_                           0.283335925473882 	(obj:0)
_var2934_                           0.227703874160171 	(obj:0)
_var2945_                           0.224531759013184 	(obj:0)
_var2946_                           0.225748903798554 	(obj:0)
_var2972_                           0.200919139116803 	(obj:0)
_var2983_                          0.0301244069174475 	(obj:0)
_var2984_                           0.349857819650973 	(obj:0)
_var2985_                           0.237579567861951 	(obj:0)
_var2986_                           0.519189561736477 	(obj:0)
_var2989_                          0.0596860072590666 	(obj:0)
_var2991_                           0.330317240249629 	(obj:0)
_var2993_                          0.0896968428909895 	(obj:0)
_var2997_                          0.0110700733139202 	(obj:0)
_var2998_                           0.161964161459237 	(obj:0)
_var3004_                           0.116683359424959 	(obj:0)
_var3005_                           0.151129179316976 	(obj:0)
_var3007_                           0.361589641819074 	(obj:0)
_var3019_                           0.120396503861038 	(obj:0)
_var3021_                           0.198282984959915 	(obj:0)
_var3024_                           0.289217307795453 	(obj:0)
_var3027_                           0.139856170204878 	(obj:0)
_var3028_                            0.11899554368329 	(obj:0)
_var3029_                           0.375695752218503 	(obj:0)
_var3036_                         0.00158928914423574 	(obj:0)
_var3044_                            0.22309243928426 	(obj:0)
_var3045_                          0.0872302880040008 	(obj:0)
_var3046_                          0.0828042932184648 	(obj:0)
_var3051_                          0.0923364444598897 	(obj:0)
_var3052_                          0.0851331171134716 	(obj:0)
_var3055_                          0.0485273925694502 	(obj:0)
_var3057_                           0.308237119894197 	(obj:0)
_var3058_                          0.0632685264843665 	(obj:0)
_var3059_                          0.0112134076847848 	(obj:0)
_var3060_                           0.265884039675149 	(obj:0)
_var3061_                          0.0198256708561764 	(obj:0)
_var3062_                          0.0412835385275094 	(obj:0)
_var3064_                          0.0968167804062531 	(obj:0)
_var3065_                         0.00662489581666447 	(obj:0)
_var3066_                           0.129936176448375 	(obj:0)
_var3067_                          0.0702016927250131 	(obj:0)
_var3068_                         0.00958110567335656 	(obj:0)
_var3071_                           0.106448063858856 	(obj:0)
_var3073_                          0.0885554736297267 	(obj:0)
_var3076_                         0.00168481355329651 	(obj:0)
_var3077_                          0.0187814387894753 	(obj:0)
_var3079_                           0.139804190064235 	(obj:0)
_var3080_                          0.0535813823117456 	(obj:0)
_var3081_                           0.296696902302551 	(obj:0)
_var3083_                            0.05649104799482 	(obj:0)
_var3084_                           0.331977765729376 	(obj:0)
_var3085_                           0.112631460358957 	(obj:0)
_var3087_                          0.0279591091491908 	(obj:0)
_var3093_                           0.296637391571895 	(obj:0)
_var3094_                          0.0324788351443989 	(obj:0)
_var3096_                          0.0795050506336761 	(obj:0)
_var3097_                          0.0432449701372357 	(obj:0)
_var3098_                           0.194914128780599 	(obj:0)
_var3099_                            0.07996296901904 	(obj:0)
_var3100_                           0.308702585261192 	(obj:0)
_var3101_                          0.0379759518412583 	(obj:0)
_var3103_                          0.0404605904776333 	(obj:0)
_var3106_                          0.0444528117148185 	(obj:0)
_var3107_                           0.017258351177447 	(obj:0)
_var3108_                           0.148954289810569 	(obj:0)
_var3110_                          0.0255941335343747 	(obj:0)
_var3111_                           0.351091893419282 	(obj:0)
_var3116_                          0.0989278509077394 	(obj:0)
_var3117_                           0.229068618018561 	(obj:0)
_var3118_                           0.395397146952706 	(obj:0)
_var3119_                          0.0853597963119466 	(obj:0)
_var3123_                           0.224595425464323 	(obj:0)
_var3124_                            0.13685625170809 	(obj:0)
_var3126_                         0.00384435422203326 	(obj:0)
_var3127_                           0.124661781669176 	(obj:0)
_var3128_                          0.0153412834916226 	(obj:0)
_var3129_                           0.212278383518579 	(obj:0)
_var3130_                          0.0797347612037776 	(obj:0)
_var3133_                           0.159059911447555 	(obj:0)
_var3137_                           0.286944165153984 	(obj:0)
_var3138_                           0.306796610485566 	(obj:0)
_var3140_                           0.126514055116034 	(obj:0)
_var3141_                           0.255732950481745 	(obj:0)
_var3142_                          0.0304639144184358 	(obj:0)
_var3144_                           0.136137171779663 	(obj:0)
_var3145_                           0.255800607545574 	(obj:0)
_var3146_                          0.0507649155887904 	(obj:0)
_var3151_                          0.0433199135163813 	(obj:0)
_var3152_                          0.0769737063242831 	(obj:0)
_var3153_                          0.0632357611643199 	(obj:0)
_var3154_                          0.0417672181177497 	(obj:0)
_var3156_                          0.0586663193852382 	(obj:0)
_var3158_                          0.0286890199773959 	(obj:0)
_var3160_                           0.015567134540093 	(obj:0)
_var3161_                          0.0593037371057533 	(obj:0)
_var3162_                          0.0119577455218122 	(obj:0)
_var3163_                          0.0165974747088496 	(obj:0)
_var3165_                           0.143908214771595 	(obj:0)
_var3167_                         0.00456666529951777 	(obj:0)
_var3168_                          0.0275644250576362 	(obj:0)
_var3170_                          0.0567136860999833 	(obj:0)
_var3171_                          0.0971220658217428 	(obj:0)
_var3173_                           0.135813336513273 	(obj:0)
_var3175_                          0.0177927722700652 	(obj:0)
_var3176_                          0.0862194450065232 	(obj:0)
_var3177_                          0.0928440198502179 	(obj:0)
_var3180_                          0.0655635695970685 	(obj:0)
_var3181_                         0.00652431556070864 	(obj:0)
_var3183_                          0.0313156843800593 	(obj:0)
_var3185_                          0.0203145168985565 	(obj:0)
_var3187_                           0.144885148976038 	(obj:0)
_var3188_                          0.0287045561443748 	(obj:0)
_var3189_                          0.0779750453378472 	(obj:0)
_var3190_                          0.0755582930958511 	(obj:0)
_var3192_                          0.0580937787873256 	(obj:0)
_var3193_                          0.0937370750485845 	(obj:0)
_var3195_                          0.0144503228514272 	(obj:0)
_var3197_                         0.00727511329921756 	(obj:0)
_var3198_                          0.0580091501438787 	(obj:0)
_var3199_                          0.0837745484602679 	(obj:0)
_var3200_                         0.00759351390959678 	(obj:0)
_var3202_                          0.0186428785789606 	(obj:0)
_var3203_                          0.0874737364273633 	(obj:0)
_var3207_                          0.0869155321077469 	(obj:0)
_var3211_                          0.0919548424623957 	(obj:0)
_var3213_                          0.0486641564126852 	(obj:0)
_var3214_                          0.0267163913773878 	(obj:0)
_var3215_                          0.0669724161652513 	(obj:0)
_var3219_                         0.00399567676628027 	(obj:0)
_var3225_                          0.0711069440515162 	(obj:0)
_var3226_                         0.00850777863817137 	(obj:0)
_var3227_                          0.0717830094458205 	(obj:0)
_var3228_                          0.0817141728263668 	(obj:0)
